; benchmark generated from python API
(set-info :status unknown)
(declare-fun return () (_ BitVec 32))
(declare-fun rdi () (_ BitVec 64))
(assert
 (let (($x31 (= (_ bv0 32) return)))
 (let ((?x6 ((_ extract 31 0) rdi)))
 (let (($x11 (bvsge (_ bv4 32) ?x6)))
 (let (($x44 (and $x11 $x31)))
 (let (($x41 (bvslt (_ bv4 32) ?x6)))
 (let (($x161 (bvslt (_ bv6 32) ?x6)))
 (let (($x32 (and $x161 $x41 $x31)))
 (let (($x208 (= (_ bv4294967271 32) return)))
 (let (($x45 (bvsge (_ bv6 32) ?x6)))
 (let (($x176 (bvsle (_ bv1 32) ?x6)))
 (let (($x178 (bvsle (_ bv2 32) ?x6)))
 (let (($x181 (bvsle (_ bv3 32) ?x6)))
 (let (($x186 (bvsle (_ bv4 32) ?x6)))
 (let (($x187 (bvsle (_ bv5 32) ?x6)))
 (let (($x182 (bvsgt (_ bv6 32) ?x6)))
 (let (($x209 (and $x182 $x187 $x186 $x181 $x178 $x176 $x45 $x41 $x208)))
 (let (($x205 (= (_ bv4294967266 32) return)))
 (let (($x193 (bvsle (_ bv6 32) ?x6)))
 (let (($x201 (bvsgt (_ bv7 32) ?x6)))
 (let (($x206 (and $x201 $x193 $x187 $x186 $x181 $x178 $x176 $x45 $x41 $x205)))
 (let (($x210 (or $x206 $x209 $x32 $x44)))
 (let (($x213 (not $x210)))
 (let ((?x46 (bvmul (_ bv5 32) ?x6)))
 (let (($x37 (= return ?x46)))
 (let (($x40 (and $x45 $x41 $x37)))
 (let (($x202 (or $x40 $x32 $x44)))
 (let (($x212 (not $x202)))
 (let (($x214 (and $x212 $x213)))
 (let (($x211 (and $x202 $x210)))
 (let (($x215 (or $x211 $x214)))
 (not $x215))))))))))))))))))))))))))))))))
(check-sat)
